Route #1: 21 56 94 80
Route #2: 20 41 22 15
Route #3: 93 75
Route #4: 31 46 35
Route #5: 34 64 96 48 26 47 38
Route #6: 40 88 67 44
Route #7: 79 11 85 30
Route #8: 74 13 4
Route #9: 39 10 18
Route #10: 24 95 73 53 33 32
Route #11: 58 12 5
Route #12: 52 91 50
Route #13: 8 17
Route #14: 7 2 45 43 29 36 72 57
Route #15: 71 62 99 98 89
Route #16: 100 61 23
Route #17: 83 51 81
Route #18: 68 90 84 66
Route #19: 28 42 78 65 25
Route #20: 54 70 1
Route #21: 63 77 3
Route #22: 82 60 59
Route #23: 27 97 19
Route #24: 76 55 16 69
Route #25: 14 49 6 37 87
Route #26: 86 9 92
Cost 27591.0000
Time 16.0009